Route #1: 156 148 154 99 104 144 42 51 34 44 86 91 57 22 71 65 151 135 165
Route #2: 106 6 73 159 15 31 153 60
Route #3: 18 20 8 155 166 147 79
Route #4: 105 129 37 112 146 108 141 50 94 59 46 43 116 82 137 136 145 123 58 157 10
Route #5: 40 61 130 107 126 152 68 5 150 78 89 121 84 113 19 26 120
Route #6: 77 7 142 35 64 13 170 100
Route #7: 39 62 140 2 67 124 47 17 102 25 167 172 111 98
Route #8: 9 11 24 173 131 41 74 118
Route #9: 56 114 169 53 21 174 49 88 66 63 139 3 90 171 30
Route #10: 133 158 162 55 134 29 80 4 52 128 125 168 164 95 96 103 33
Route #11: 97 27 16 132 72 161 101 36 127 143 175 122
Route #12: 92 160 115 76 87 28 110 45 119 48 83 38 85 117 81 1 109 54 163 70 75 69
Route #13: 138 32 23 149 12 93 14
Cost 29697.000000